(set-logic ALL)
(set-option :produce-models true)
(declare-sort BoundSet 0)
(declare-sort UnboundSet 0)
(set-option :finite-model-find true)
(declare-fun IsDressedInCostumes (BoundSet) Bool)
(declare-fun IsPlayingMusicalInstruments (BoundSet) Bool)
(declare-fun IsWorkingAtOffice (BoundSet) Bool)
(assert (not (=> (exists ((a BoundSet)) (and (IsDressedInCostumes a) (IsPlayingMusicalInstruments a))) (exists ((d BoundSet)) (IsWorkingAtOffice d)))))
(check-sat)
(get-model)